NAME : zqloutput/eax-hard-simple-rescaleandround/50-12.tsp
TYPE : TSP
DIMENSION : 50
EDGE_WEIGHT_TYPE : EUC_2D
NODE_COORD_SECTION
1 327382 285660
2 719037 238323
3 601864 792843
4 197730 629392
5 842752 410193
6 194832 837021
7 613898 379522
8 305518 554139
9 804882 151153
10 307799 115123
11 273324 530784
12 788524 991983
13 565688 325225
14 453441 555812
15 295812 424761
16 238878 363713
17 922638 715581
18 85546 83001
19 617342 102627
20 88648 39818
21 624911 951
22 367768 711665
23 768046 626907
24 539060 849443
25 615426 184856
26 508450 271286
27 680596 672008
28 403508 100991
29 334262 335591
30 435796 611367
31 493898 676069
32 896459 583684
33 761393 631236
34 882883 772445
35 772341 290718
36 949643 566492
37 260155 435014
38 610980 529412
39 183496 625532
40 258006 182774
41 398587 806767
42 44645 494006
43 285010 399809
44 202631 277568
45 126166 570813
46 776304 515194
47 931890 338895
48 321425 573265
49 593309 583214
50 52229 871786
EOF
